(set-logic ALL)
(declare-fun i1 () Int)
(declare-fun it10 () Int)
(declare-fun it144 () Int)
(declare-fun it175 () Int)
(declare-fun it176 () Int)
(declare-fun it177 () Int)
(declare-fun it178 () Int)
(declare-fun it179 () Int)
(declare-fun it180 () Int)
(declare-fun it6 () Int)
(declare-fun it192 () Int)
(declare-fun it15 () Int)
(declare-fun it195 () Int)
(declare-fun it196 () Int)
(declare-fun it197 () Int)
(declare-fun it198 () Int)
(declare-fun it199 () Int)
(declare-fun it200 () Int)
(declare-fun it11 () Int)
(declare-fun it20 () Int)
(declare-fun it205 () Int)
(declare-fun it206 () Int)
(declare-fun it207 () Int)
(declare-fun it208 () Int)
(declare-fun it209 () Int)
(declare-fun it17 () Int)
(declare-fun it16 () Int)
(declare-fun it210 () Int)
(declare-fun it223 () Int)
(declare-fun it25 () Int)
(declare-fun it227 () Int)
(declare-fun it228 () Int)
(declare-fun it229 () Int)
(declare-fun it230 () Int)
(declare-fun it22 () Int)
(declare-fun it231 () Int)
(declare-fun it232 () Int)
(declare-fun it21 () Int)
(declare-fun it30 () Int)
(declare-fun it237 () Int)
(declare-fun it238 () Int)
(declare-fun it239 () Int)
(declare-fun it240 () Int)
(declare-fun it241 () Int)
(declare-fun it27 () Int)
(declare-fun it26 () Int)
(declare-fun it242 () Int)
(declare-fun it255 () Int)
(declare-fun it35 () Int)
(declare-fun it259 () Int)
(declare-fun it260 () Int)
(declare-fun it261 () Int)
(declare-fun it262 () Int)
(declare-fun it32 () Int)
(declare-fun it263 () Int)
(declare-fun it264 () Int)
(declare-fun it31 () Int)
(declare-fun it49 () Int)
(declare-fun it50 () Int)
(declare-fun it47 () Int)
(declare-fun it269 () Int)
(declare-fun it270 () Int)
(declare-fun it271 () Int)
(declare-fun it272 () Int)
(declare-fun it273 () Int)
(declare-fun it274 () Int)
(declare-fun it90 () Int)
(declare-fun it278 () Int)
(declare-fun it279 () Int)
(declare-fun it280 () Int)
(declare-fun it281 () Int)
(declare-fun it282 () Int)
(declare-fun it283 () Int)
(declare-fun it140 () Int)
(assert (and (> (+ it144 1) 0) (> it10 0) (= (+ i1 (- 13)) 0)))
(assert (= (+ it175 (- 2)) 0))
(assert (= (+ it176 (* it10 (- 1))) 0))
(assert (= (+ it177 (- 2)) 0))
(assert (= it178 0))
(assert (= (+ (* it144 (- 1)) it179) 0))
(assert (= (+ (* it6 (- 1)) it180) 0))
(assert (let ((a!1 (> (+ (+ (* it178 (- 1)) it179) (* it192 (- 1)) 1) 0)))
  (and (> it15 0)
       (>= (+ it176 (* it15 (- 1))) 0)
       (> it176 0)
       (>= (+ it175 (- 2)) 0)
       (>= (+ (* it175 (- 1)) 2) 0)
       (> (+ (* it178 (- 1)) it179) 0)
       (> (+ it179 1) 0)
       (>= (+ it192 (- 1)) 0)
       a!1
       (> (+ it177 (- 1)) 0))))
(assert (= (+ (* it175 (- 1)) it195) 0))
(assert (= (+ it196 (* it15 (- 1))) 0))
(assert (= (+ (* (exp 2 it192) (+ 0 it177) (+ 0 (- 1))) (+ 0 it197))
   (+ 0 0)))
(assert (= (+ (* it178 (- 1)) (* it192 (- 1)) it198) 0))
(assert (= (+ it199 (* it179 (- 1))) 0))
(assert (= (+ (* it11 (- 1)) it200) 0))
(assert (and (> it20 0)
     (> (+ it197 1) 0)
     (= (+ it195 (- 2)) 0)
     (>= (+ it196 (* it20 (- 1))) 0)
     (> it196 0)
     (<= (+ it199 (* it198 (- 1))) 0)))
(assert (= (+ it205 (- 3)) 0))
(assert (= (+ it206 (* it20 (- 1))) 0))
(assert (= it207 0))
(assert (= (+ (* it197 (- 1)) it208) 0))
(assert (= (+ (* it17 (- 1)) it209) 0))
(assert (= (+ it210 (* it16 (- 1))) 0))
(assert (and (> it25 0)
     (> (+ it207 1) 0)
     (>= (+ it205 (- 3)) 0)
     (>= (+ it206 (* it25 (- 1))) 0)
     (> it206 0)
     (> (+ (* it207 (- 1)) (* it223 (- 1)) it208 1) 0)
     (> (+ it208 1) 0)
     (>= (+ (* it205 (- 1)) 3) 0)
     (> (+ (* it207 (- 1)) it208) 0)
     (>= (+ it223 (- 1)) 0)))
(assert (= (+ it227 (* it205 (- 1))) 0))
(assert (= (+ (* it25 (- 1)) it228) 0))
(assert (= (+ (* it207 (- 1)) (* it223 (- 1)) it229) 0))
(assert (= (+ it230 (* it208 (- 1))) 0))
(assert (= (+ it231 (* it22 (- 1))) 0))
(assert (= (+ (* it21 (- 1)) it232) 0))
(assert (and (> it30 0)
     (= (+ it227 (- 3)) 0)
     (<= (+ it230 (* it229 (- 1))) 0)
     (> it230 0)
     (<= (+ it30 (* it228 (- 1))) 0)
     (> it228 0)))
(assert (= (+ it237 (- 4)) 0))
(assert (= (+ (* it30 (- 1)) it238) 0))
(assert (= it239 0))
(assert (= (+ (* it230 (- 1)) it240) 0))
(assert (= (+ (* it27 (- 1)) it241) 0))
(assert (= (+ it242 (* it26 (- 1))) 0))
(assert (and (> it35 0)
     (> (+ (* it239 (- 1)) it240) 0)
     (> (+ (* it239 (- 1)) (* it255 (- 1)) it240 1) 0)
     (>= (+ it237 (- 4)) 0)
     (> (+ it240 (- 1)) 0)
     (>= (+ (* it237 (- 1)) 4) 0)
     (> it238 0)
     (>= (+ (* it35 (- 1)) it238) 0)
     (>= (+ it255 (- 1)) 0)))
(assert (= (+ (* it237 (- 1)) it259) 0))
(assert (= (+ it260 (* it35 (- 1))) 0))
(assert (= (+ (* it239 (- 1)) (* it255 (- 1)) it261) 0))
(assert (= (+ (* it240 (- 1)) it262) 0))
(assert (= (+ it263 (* it32 (- 1))) 0))
(assert (= (+ (* it31 (- 1)) it264) 0))
(assert (and (> it47 0)
     (> it49 0)
     (> it50 0)
     (<= (+ (* it260 (- 1)) it47) 0)
     (<= (+ (* it261 (- 1)) it262) 0)
     (<= (+ (* it260 (- 1)) it50) 0)
     (> (+ it262 (- 1)) 0)
     (> it260 0)
     (= (+ it259 (- 4)) 0)
     (<= (+ it49 (* it260 (- 1))) 0)))
(assert (= (+ it269 (- 6)) 0))
(assert (= (+ it270 (* it50 (- 1))) 0))
(assert (= (+ (* it49 (- 1)) it271) 0))
(assert (= it272 0))
(assert (= (+ it273 (* it47 (- 1))) 0))
(assert (= (+ it274 (* it262 (- 1))) 0))
(assert (and (> it90 0)
     (> it270 0)
     (> it274 0)
     (> (+ (* it272 (- 1)) it274 (- 1)) 0)
     (<= (+ it90 (* it270 (- 1))) 0)
     (<= (+ it90 (* it271 (- 1))) 0)
     (> it271 0)
     (<= (+ it90 (* it273 (- 1))) 0)
     (> it273 0)
     (= (+ it269 (- 6)) 0)))
(assert (= (+ it278 (- 10)) 0))
(assert (= (+ (* it90 (- 1)) it279) 0))
(assert (= (+ (* it272 (- 1)) it280) 0))
(assert (= (+ (* it272 (- 1)) it281) 0))
(assert (= (+ (* it272 (- 1)) it282) 0))
(assert (= (+ it283 (* it274 (- 1))) 0))
(assert (and (> (+ it283 (* it280 (- 1))) 0)
     (> it140 0)
     (= (+ it278 (- 10)) 0)
     (> (+ it280 1) 0)
     (<= (+ (* it279 (- 1)) 1) 0)
     (<= (+ it140 (* it279 (- 1))) 0)
     (> (+ it283 (- 1)) 0)
     (= (+ (* it282 (- 1)) it281) 0)
     (> (+ it283 (* it281 (- 1))) 0)
     (> it279 0)
     (> (+ it283 1) 0)))
(check-sat)
